200
0 84 144 190 26 197 122 14 12 78 159 161 63 19 54 41 134 185 126 111 119 46 30 66 176 64 150 186 53 5 108 156 106 74 182 154 7 21 133 128 145 102 142 16 24 89 33 57 140 170 199 97 113 87 147 27 38 37 70 129 71 82 61 184 167 172 22 149 90 93 94 49 138 85 195 55 151 177 4 104 42 136 132 175 112 194 181 75 69 143 101 153 20 139 163 29 67 168 34 1 180 124 160 79 76 157 192 127 166 40 88 58 2 72 188 130 179 141 68 107 13 191 59 100 3 162 92 105 148 189 48 17 109 28 183 36 178 152 65 118 18 98 91 9 174 35 56 73 99 155 32 44 196 80 96 103 164 165 95 125 86 51 10 83 47 169 121 115 43 187 193 50 62 15 117 123 137 8 77 81 6 198 25 60 135 31 23 158 173 120 171 45 11 146 39 131 110 116 114 52 
